NAME: CMT12_11
TYPE: CVRP
COMMENT: 819.56 - Cluster Nr.11
DIMENSION: 6
CAPACITY: 200
EDGE_WEIGHT_TYPE: EUC_2D
NODE_COORD_TYPE: TWOD_COORDS
NODE_COORD_SECTION: 
4 25 50
5 20 55
6 23 52
1 23 55
3 20 50
2 40 50
DEPOT_SECTION: 
2
-1
DEMAND_SECTION: 
4 10
5 10
2 0
3 10
1 20
6 10
EOF
